NAME : F-n10-k3
CAPACITY : 496
NODE_COORD_SECTION
1   298   276
2   375   374
3   373   105
4   346   191
5   101   405
6   224   179
7   376   314
8   237   74
9   124   243
10   414   184
DEMAND_SECTION
1   0
2   19
3   51
4   59
5   71
6   34
7   54
8   38
9   54
10   13
DEPOT_SECTION
    1
    -1
EOF